(set-logic QF_NRA)
(set-info :source |Benchmarks generated from hycomp (https://es-static.fbk.eu/tools/hycomp/). BMC instances of non-linear hybrid automata taken from: Alessandro Cimatti, Sergio Mover, Stefano Tonetta, A quantifier-free SMT encoding of non-linear hybrid automata, FMCAD 2012 and Alessandro Cimatti, Sergio Mover, Stefano Tonetta, Quantier-free encoding of invariants for Hybrid Systems, Formal Methods in System Design. This instance solves a BMC problem of depth 1 and uses the quantifier free encoding with equivalences and lemmas encoding. Contacts: Sergio Mover (mover@fbk.eu), Stefano Tonetta (tonettas@fbk.eu), Alessandro Cimatti (cimatti@fbk.eu).|)
(set-info :smt-lib-version 2.0)
(set-info :category "industrial")
(set-info :status unsat)
;; MathSAT API call trace
;; generated on Mon Mar 19 10:48:31 2012
(declare-fun b.x__AT0 () Real)
(declare-fun b.speed_y__AT1 () Real)
(declare-fun b.delta__AT1 () Real)
(declare-fun b.bool_atom__AT0 () Bool)
(declare-fun b.y__AT0 () Real)
(declare-fun b.EVENT.1__AT1 () Bool)
(declare-fun b.EVENT.0__AT1 () Bool)
(declare-fun b.counter.0__AT0 () Bool)
(declare-fun b.delta__AT0 () Real)
(declare-fun b.counter.1__AT0 () Bool)
(declare-fun b.y__AT1 () Real)
(declare-fun b.EVENT.0__AT0 () Bool)
(declare-fun b.event_is_timed__AT0 () Bool)
(declare-fun b.speed_y__AT0 () Real)
(declare-fun b.speed_x__AT1 () Real)
(declare-fun b.EVENT.1__AT0 () Bool)
(declare-fun b.counter.3__AT0 () Bool)
(declare-fun b.time__AT1 () Real)
(declare-fun b.x__AT1 () Real)
(declare-fun b.event_is_timed__AT1 () Bool)
(declare-fun b.counter.0__AT1 () Bool)
(declare-fun b.speed_loss__AT0 () Real)
(declare-fun b.counter.1__AT1 () Bool)
(declare-fun b.speed_x__AT0 () Real)
(declare-fun b.counter.2__AT1 () Bool)
(declare-fun b.time__AT0 () Real)
(declare-fun b.counter.2__AT0 () Bool)
(declare-fun b.counter.3__AT1 () Bool)
(declare-fun b.bool_atom__AT1 () Bool)
(assert (let ((.def_594 (* (- 49.0) b.delta__AT1)))
(let ((.def_595 (* 5.0 b.speed_y__AT1)))
(let ((.def_597 (+ .def_595 .def_594)))
(let ((.def_610 (<= 0.0 .def_597)))
(let ((.def_611 (not .def_610)))
(let ((.def_608 (<= 0.0 b.speed_y__AT1)))
(let ((.def_625 (or .def_608 .def_611)))
(let ((.def_600 (<= b.speed_y__AT1 0.0 )))
(let ((.def_601 (not .def_600)))
(let ((.def_598 (<= .def_597 0.0 )))
(let ((.def_624 (or .def_598 .def_601)))
(let ((.def_626 (and .def_624 .def_625)))
(let ((.def_480 (* b.y__AT1 b.speed_y__AT1)))
(let ((.def_521 (* 2.0 .def_480)))
(let ((.def_522 (+ b.speed_x__AT1 .def_521)))
(let ((.def_535 (<= .def_522 0.0 )))
(let ((.def_621 (and .def_535 .def_610)))
(let ((.def_523 (<= 0.0 .def_522)))
(let ((.def_620 (and .def_523 .def_598)))
(let ((.def_622 (or .def_620 .def_621)))
(let ((.def_469 (* (- (/ 49 10)) b.speed_y__AT1)))
(let ((.def_498 (* 3.0 .def_469)))
(let ((.def_554 (* 2.0 .def_498)))
(let ((.def_555 (* b.delta__AT1 .def_554)))
(let ((.def_556 (* (- 50.0) .def_555)))
(let ((.def_464 (* b.delta__AT1 b.delta__AT1)))
(let ((.def_553 (* (- 7203.0) .def_464)))
(let ((.def_557 (+ .def_553 .def_556)))
(let ((.def_343 (* b.speed_y__AT1 b.speed_y__AT1)))
(let ((.def_558 (* (- 50.0) .def_343)))
(let ((.def_562 (+ .def_558 .def_557)))
(let ((.def_560 (* 490.0 b.y__AT1)))
(let ((.def_563 (+ .def_560 .def_562)))
(let ((.def_580 (<= 0.0 .def_563)))
(let ((.def_581 (not .def_580)))
(let ((.def_566 (* (- 5.0) .def_343)))
(let ((.def_567 (* 49.0 b.y__AT1)))
(let ((.def_569 (+ .def_567 .def_566)))
(let ((.def_578 (<= 0.0 .def_569)))
(let ((.def_615 (or .def_578 .def_581)))
(let ((.def_570 (<= .def_569 0.0 )))
(let ((.def_571 (not .def_570)))
(let ((.def_564 (<= .def_563 0.0 )))
(let ((.def_614 (or .def_564 .def_571)))
(let ((.def_616 (and .def_614 .def_615)))
(let ((.def_609 (not .def_608)))
(let ((.def_612 (or .def_609 .def_611)))
(let ((.def_613 (not .def_612)))
(let ((.def_617 (or .def_613 .def_616)))
(let ((.def_565 (not .def_564)))
(let ((.def_605 (or .def_565 .def_570)))
(let ((.def_579 (not .def_578)))
(let ((.def_604 (or .def_579 .def_580)))
(let ((.def_606 (and .def_604 .def_605)))
(let ((.def_599 (not .def_598)))
(let ((.def_602 (or .def_599 .def_601)))
(let ((.def_603 (not .def_602)))
(let ((.def_607 (or .def_603 .def_606)))
(let ((.def_618 (and .def_607 .def_617)))
(let ((.def_591 (and .def_535 .def_580)))
(let ((.def_590 (and .def_523 .def_564)))
(let ((.def_592 (or .def_590 .def_591)))
(let ((.def_476 (* (- (/ 49 10)) b.y__AT1)))
(let ((.def_506 (* 2.0 .def_476)))
(let ((.def_507 (* b.delta__AT1 .def_506)))
(let ((.def_508 (* 50.0 .def_507)))
(let ((.def_502 (* 2.0 .def_343)))
(let ((.def_503 (* b.delta__AT1 .def_502)))
(let ((.def_504 (* 25.0 .def_503)))
(let ((.def_514 (+ .def_504 .def_508)))
(let ((.def_499 (* .def_464 .def_498)))
(let ((.def_500 (* 50.0 .def_499)))
(let ((.def_515 (+ .def_500 .def_514)))
(let ((.def_510 (* 50.0 .def_480)))
(let ((.def_516 (+ .def_510 .def_515)))
(let ((.def_465 (* b.delta__AT1 .def_464)))
(let ((.def_497 (* 2401.0 .def_465)))
(let ((.def_517 (+ .def_497 .def_516)))
(let ((.def_512 (* 25.0 b.speed_x__AT1)))
(let ((.def_518 (+ .def_512 .def_517)))
(let ((.def_537 (<= .def_518 0.0 )))
(let ((.def_538 (not .def_537)))
(let ((.def_585 (or .def_535 .def_538)))
(let ((.def_524 (not .def_523)))
(let ((.def_519 (<= 0.0 .def_518)))
(let ((.def_584 (or .def_519 .def_524)))
(let ((.def_586 (and .def_584 .def_585)))
(let ((.def_582 (or .def_579 .def_581)))
(let ((.def_583 (not .def_582)))
(let ((.def_587 (or .def_583 .def_586)))
(let ((.def_520 (not .def_519)))
(let ((.def_575 (or .def_520 .def_523)))
(let ((.def_536 (not .def_535)))
(let ((.def_574 (or .def_536 .def_537)))
(let ((.def_576 (and .def_574 .def_575)))
(let ((.def_572 (or .def_565 .def_571)))
(let ((.def_573 (not .def_572)))
(let ((.def_577 (or .def_573 .def_576)))
(let ((.def_588 (and .def_577 .def_587)))
(let ((.def_550 (and .def_535 .def_537)))
(let ((.def_549 (and .def_519 .def_523)))
(let ((.def_551 (or .def_549 .def_550)))
(let ((.def_481 (* b.delta__AT1 .def_480)))
(let ((.def_482 (* 200.0 .def_481)))
(let ((.def_477 (* .def_464 .def_476)))
(let ((.def_478 (* 200.0 .def_477)))
(let ((.def_488 (+ .def_478 .def_482)))
(let ((.def_473 (* .def_343 .def_464)))
(let ((.def_474 (* 100.0 .def_473)))
(let ((.def_489 (+ .def_474 .def_488)))
(let ((.def_470 (* .def_465 .def_469)))
(let ((.def_471 (* 200.0 .def_470)))
(let ((.def_490 (+ .def_471 .def_489)))
(let ((.def_466 (* b.delta__AT1 .def_465)))
(let ((.def_467 (* 2401.0 .def_466)))
(let ((.def_491 (+ .def_467 .def_490)))
(let ((.def_462 (* b.speed_x__AT1 b.delta__AT1)))
(let ((.def_463 (* 100.0 .def_462)))
(let ((.def_492 (+ .def_463 .def_491)))
(let ((.def_447 (* b.y__AT1 b.y__AT1)))
(let ((.def_484 (* 100.0 .def_447)))
(let ((.def_493 (+ .def_484 .def_492)))
(let ((.def_486 (* 100.0 b.x__AT1)))
(let ((.def_494 (+ .def_486 .def_493)))
(let ((.def_529 (<= .def_494 0.0 )))
(let ((.def_543 (not .def_529)))
(let ((.def_448 (+ b.x__AT1 .def_447)))
(let ((.def_527 (<= .def_448 0.0 )))
(let ((.def_544 (or .def_527 .def_543)))
(let ((.def_449 (<= 0.0 .def_448)))
(let ((.def_541 (not .def_449)))
(let ((.def_495 (<= 0.0 .def_494)))
(let ((.def_542 (or .def_495 .def_541)))
(let ((.def_545 (and .def_542 .def_544)))
(let ((.def_539 (or .def_536 .def_538)))
(let ((.def_540 (not .def_539)))
(let ((.def_546 (or .def_540 .def_545)))
(let ((.def_531 (not .def_495)))
(let ((.def_532 (or .def_449 .def_531)))
(let ((.def_528 (not .def_527)))
(let ((.def_530 (or .def_528 .def_529)))
(let ((.def_533 (and .def_530 .def_532)))
(let ((.def_525 (or .def_520 .def_524)))
(let ((.def_526 (not .def_525)))
(let ((.def_534 (or .def_526 .def_533)))
(let ((.def_547 (and .def_534 .def_546)))
(let ((.def_496 (and .def_449 .def_495)))
(let ((.def_548 (and .def_496 .def_547)))
(let ((.def_552 (and .def_548 .def_551)))
(let ((.def_589 (and .def_552 .def_588)))
(let ((.def_593 (and .def_589 .def_592)))
(let ((.def_619 (and .def_593 .def_618)))
(let ((.def_623 (and .def_619 .def_622)))
(let ((.def_627 (and .def_623 .def_626)))
(let ((.def_73 (<= b.speed_loss__AT0 (/ 1 2))))
(let ((.def_70 (<= (/ 1 10) b.speed_loss__AT0)))
(let ((.def_74 (and .def_70 .def_73)))
(let ((.def_628 (and .def_74 .def_627)))
(let ((.def_43 (not b.counter.0__AT0)))
(let ((.def_41 (not b.counter.1__AT0)))
(let ((.def_44 (and .def_41 .def_43)))
(let ((.def_457 (or .def_44 b.counter.3__AT0)))
(let ((.def_454 (or .def_44 b.counter.2__AT0)))
(let ((.def_46 (not b.counter.2__AT0)))
(let ((.def_453 (or .def_41 .def_46)))
(let ((.def_455 (and .def_453 .def_454)))
(let ((.def_49 (not b.counter.3__AT0)))
(let ((.def_456 (or .def_49 .def_455)))
(let ((.def_458 (and .def_456 .def_457)))
(let ((.def_450 (and .def_74 .def_449)))
(let ((.def_444 (not b.EVENT.0__AT1)))
(let ((.def_442 (not b.EVENT.1__AT1)))
(let ((.def_445 (or .def_442 .def_444)))
(let ((.def_9 (not b.counter.0__AT1)))
(let ((.def_6 (not b.counter.1__AT1)))
(let ((.def_435 (or .def_6 .def_9)))
(let ((.def_439 (or b.counter.3__AT1 .def_435)))
(let ((.def_436 (or b.counter.2__AT1 .def_435)))
(let ((.def_4 (not b.counter.2__AT1)))
(let ((.def_434 (or .def_4 .def_9)))
(let ((.def_437 (and .def_434 .def_436)))
(let ((.def_14 (not b.counter.3__AT1)))
(let ((.def_438 (or .def_14 .def_437)))
(let ((.def_440 (and .def_438 .def_439)))
(let ((.def_446 (and .def_440 .def_445)))
(let ((.def_451 (and .def_446 .def_450)))
(let ((.def_429 (<= 0.0 b.delta__AT0)))
(let ((.def_62 (not b.EVENT.0__AT0)))
(let ((.def_60 (not b.EVENT.1__AT0)))
(let ((.def_266 (and .def_60 .def_62)))
(let ((.def_268 (not .def_266)))
(let ((.def_430 (or .def_268 .def_429)))
(let ((.def_431 (or b.EVENT.1__AT0 .def_430)))
(let ((.def_308 (= b.bool_atom__AT0 b.bool_atom__AT1)))
(let ((.def_303 (= b.counter.0__AT1 b.counter.0__AT0)))
(let ((.def_301 (= b.counter.1__AT1 b.counter.1__AT0)))
(let ((.def_299 (= b.counter.2__AT1 b.counter.2__AT0)))
(let ((.def_298 (= b.counter.3__AT1 b.counter.3__AT0)))
(let ((.def_300 (and .def_298 .def_299)))
(let ((.def_302 (and .def_300 .def_301)))
(let ((.def_304 (and .def_302 .def_303)))
(let ((.def_425 (and .def_304 .def_308)))
(let ((.def_426 (or .def_268 .def_425)))
(let ((.def_427 (or b.EVENT.1__AT0 .def_426)))
(let ((.def_407 (* b.speed_y__AT0 b.delta__AT0)))
(let ((.def_408 (* 10.0 .def_407)))
(let ((.def_412 (* (- 10.0) b.y__AT1)))
(let ((.def_416 (+ .def_412 .def_408)))
(let ((.def_83 (* b.delta__AT0 b.delta__AT0)))
(let ((.def_409 (* (- 49.0) .def_83)))
(let ((.def_417 (+ .def_409 .def_416)))
(let ((.def_414 (* 10.0 b.y__AT0)))
(let ((.def_418 (+ .def_414 .def_417)))
(let ((.def_419 (= .def_418 0.0 )))
(let ((.def_402 (* (- 5.0) b.speed_y__AT1)))
(let ((.def_230 (* (- 49.0) b.delta__AT0)))
(let ((.def_403 (+ .def_230 .def_402)))
(let ((.def_231 (* 5.0 b.speed_y__AT0)))
(let ((.def_404 (+ .def_231 .def_403)))
(let ((.def_405 (= .def_404 0.0 )))
(let ((.def_398 (* (- 1.0) b.x__AT1)))
(let ((.def_80 (* b.speed_x__AT0 b.delta__AT0)))
(let ((.def_399 (+ .def_80 .def_398)))
(let ((.def_400 (+ b.x__AT0 .def_399)))
(let ((.def_401 (= .def_400 0.0 )))
(let ((.def_406 (and .def_401 .def_405)))
(let ((.def_420 (and .def_406 .def_419)))
(let ((.def_293 (= b.speed_x__AT0 b.speed_x__AT1)))
(let ((.def_421 (and .def_293 .def_420)))
(let ((.def_422 (or .def_268 .def_421)))
(let ((.def_290 (= b.y__AT0 b.y__AT1)))
(let ((.def_287 (= b.x__AT0 b.x__AT1)))
(let ((.def_392 (and .def_287 .def_290)))
(let ((.def_393 (and .def_293 .def_392)))
(let ((.def_296 (= b.speed_y__AT0 b.speed_y__AT1)))
(let ((.def_394 (and .def_296 .def_393)))
(let ((.def_389 (= b.delta__AT0 0.0 )))
(let ((.def_390 (and .def_266 .def_389)))
(let ((.def_391 (not .def_390)))
(let ((.def_395 (or .def_391 .def_394)))
(let ((.def_396 (or b.EVENT.1__AT0 .def_395)))
(let ((.def_381 (and .def_293 .def_296)))
(let ((.def_382 (and .def_304 .def_381)))
(let ((.def_383 (or b.bool_atom__AT0 .def_382)))
(let ((.def_357 (or .def_9 b.counter.0__AT0)))
(let ((.def_356 (or b.counter.0__AT1 .def_43)))
(let ((.def_358 (and .def_356 .def_357)))
(let ((.def_359 (and .def_6 .def_358)))
(let ((.def_360 (or b.counter.1__AT0 .def_359)))
(let ((.def_355 (or b.counter.1__AT1 .def_41)))
(let ((.def_361 (and .def_355 .def_360)))
(let ((.def_372 (and .def_4 .def_361)))
(let ((.def_373 (or b.counter.2__AT0 .def_372)))
(let ((.def_367 (and .def_6 .def_43)))
(let ((.def_368 (or b.counter.1__AT0 .def_367)))
(let ((.def_369 (and .def_355 .def_368)))
(let ((.def_370 (and b.counter.2__AT1 .def_369)))
(let ((.def_371 (or .def_46 .def_370)))
(let ((.def_374 (and .def_371 .def_373)))
(let ((.def_375 (and b.counter.3__AT1 .def_374)))
(let ((.def_376 (or b.counter.3__AT0 .def_375)))
(let ((.def_362 (and b.counter.2__AT1 .def_361)))
(let ((.def_363 (or b.counter.2__AT0 .def_362)))
(let ((.def_351 (or b.counter.1__AT1 b.counter.1__AT0)))
(let ((.def_349 (and .def_6 b.counter.0__AT1)))
(let ((.def_350 (or .def_41 .def_349)))
(let ((.def_352 (and .def_350 .def_351)))
(let ((.def_353 (and .def_4 .def_352)))
(let ((.def_354 (or .def_46 .def_353)))
(let ((.def_364 (and .def_354 .def_363)))
(let ((.def_365 (and .def_14 .def_364)))
(let ((.def_366 (or .def_49 .def_365)))
(let ((.def_377 (and .def_366 .def_376)))
(let ((.def_338 (* b.speed_x__AT0 b.speed_x__AT0)))
(let ((.def_97 (* b.speed_y__AT0 b.speed_y__AT0)))
(let ((.def_339 (+ .def_97 .def_338)))
(let ((.def_324 (* (- 1.0) b.speed_loss__AT0)))
(let ((.def_325 (+ 1.0 .def_324)))
(let ((.def_337 (* .def_325 .def_325)))
(let ((.def_340 (* .def_337 .def_339)))
(let ((.def_341 (* (- 1.0) .def_340)))
(let ((.def_345 (+ .def_341 .def_343)))
(let ((.def_336 (* b.speed_x__AT1 b.speed_x__AT1)))
(let ((.def_346 (+ .def_336 .def_345)))
(let ((.def_347 (= .def_346 0.0 )))
(let ((.def_314 (* 2.0 b.y__AT0)))
(let ((.def_328 (* .def_314 .def_325)))
(let ((.def_329 (* b.speed_y__AT0 .def_328)))
(let ((.def_326 (* b.speed_x__AT0 .def_325)))
(let ((.def_332 (+ .def_326 .def_329)))
(let ((.def_322 (* 2.0 b.y__AT1)))
(let ((.def_323 (* b.speed_y__AT1 .def_322)))
(let ((.def_333 (+ .def_323 .def_332)))
(let ((.def_334 (+ b.speed_x__AT1 .def_333)))
(let ((.def_335 (= .def_334 0.0 )))
(let ((.def_348 (and .def_335 .def_347)))
(let ((.def_378 (and .def_348 .def_377)))
(let ((.def_321 (not b.bool_atom__AT0)))
(let ((.def_379 (or .def_321 .def_378)))
(let ((.def_315 (* b.speed_y__AT0 .def_314)))
(let ((.def_316 (+ b.speed_x__AT0 .def_315)))
(let ((.def_317 (<= 0.0 .def_316)))
(let ((.def_318 (not .def_317)))
(let ((.def_65 (* b.y__AT0 b.y__AT0)))
(let ((.def_66 (+ b.x__AT0 .def_65)))
(let ((.def_313 (= .def_66 0.0 )))
(let ((.def_319 (and .def_313 .def_318)))
(let ((.def_320 (= b.bool_atom__AT0 .def_319)))
(let ((.def_380 (and .def_320 .def_379)))
(let ((.def_384 (and .def_380 .def_383)))
(let ((.def_385 (and .def_287 .def_384)))
(let ((.def_386 (and .def_290 .def_385)))
(let ((.def_387 (or .def_266 .def_386)))
(let ((.def_388 (or b.EVENT.1__AT0 .def_387)))
(let ((.def_397 (and .def_388 .def_396)))
(let ((.def_423 (and .def_397 .def_422)))
(let ((.def_273 (= b.time__AT0 b.time__AT1)))
(let ((.def_288 (and .def_273 .def_287)))
(let ((.def_291 (and .def_288 .def_290)))
(let ((.def_294 (and .def_291 .def_293)))
(let ((.def_297 (and .def_294 .def_296)))
(let ((.def_305 (and .def_297 .def_304)))
(let ((.def_309 (and .def_305 .def_308)))
(let ((.def_310 (or .def_60 .def_309)))
(let ((.def_277 (* (- 1.0) b.time__AT1)))
(let ((.def_280 (+ b.delta__AT0 .def_277)))
(let ((.def_281 (+ b.time__AT0 .def_280)))
(let ((.def_282 (= .def_281 0.0 )))
(let ((.def_283 (or .def_268 .def_282)))
(let ((.def_284 (or b.EVENT.1__AT0 .def_283)))
(let ((.def_274 (or .def_266 .def_273)))
(let ((.def_275 (or b.EVENT.1__AT0 .def_274)))
(let ((.def_285 (and .def_275 .def_284)))
(let ((.def_311 (and .def_285 .def_310)))
(let ((.def_270 (= .def_268 b.event_is_timed__AT1)))
(let ((.def_267 (= b.event_is_timed__AT0 .def_266)))
(let ((.def_271 (and .def_267 .def_270)))
(let ((.def_312 (and .def_271 .def_311)))
(let ((.def_424 (and .def_312 .def_423)))
(let ((.def_428 (and .def_424 .def_427)))
(let ((.def_432 (and .def_428 .def_431)))
(let ((.def_433 (and .def_60 .def_432)))
(let ((.def_452 (and .def_433 .def_451)))
(let ((.def_459 (and .def_452 .def_458)))
(let ((.def_233 (+ .def_231 .def_230)))
(let ((.def_246 (<= 0.0 .def_233)))
(let ((.def_247 (not .def_246)))
(let ((.def_244 (<= 0.0 b.speed_y__AT0)))
(let ((.def_261 (or .def_244 .def_247)))
(let ((.def_236 (<= b.speed_y__AT0 0.0 )))
(let ((.def_237 (not .def_236)))
(let ((.def_234 (<= .def_233 0.0 )))
(let ((.def_260 (or .def_234 .def_237)))
(let ((.def_262 (and .def_260 .def_261)))
(let ((.def_105 (* b.y__AT0 b.speed_y__AT0)))
(let ((.def_149 (* 2.0 .def_105)))
(let ((.def_150 (+ b.speed_x__AT0 .def_149)))
(let ((.def_163 (<= .def_150 0.0 )))
(let ((.def_257 (and .def_163 .def_246)))
(let ((.def_151 (<= 0.0 .def_150)))
(let ((.def_256 (and .def_151 .def_234)))
(let ((.def_258 (or .def_256 .def_257)))
(let ((.def_92 (* (- (/ 49 10)) b.speed_y__AT0)))
(let ((.def_124 (* 3.0 .def_92)))
(let ((.def_184 (* 2.0 .def_124)))
(let ((.def_185 (* b.delta__AT0 .def_184)))
(let ((.def_187 (* (- 50.0) .def_185)))
(let ((.def_189 (* (- 50.0) .def_97)))
(let ((.def_194 (+ .def_189 .def_187)))
(let ((.def_183 (* (- 7203.0) .def_83)))
(let ((.def_195 (+ .def_183 .def_194)))
(let ((.def_192 (* 490.0 b.y__AT0)))
(let ((.def_196 (+ .def_192 .def_195)))
(let ((.def_215 (<= 0.0 .def_196)))
(let ((.def_216 (not .def_215)))
(let ((.def_201 (* (- 5.0) .def_97)))
(let ((.def_202 (* 49.0 b.y__AT0)))
(let ((.def_204 (+ .def_202 .def_201)))
(let ((.def_213 (<= 0.0 .def_204)))
(let ((.def_251 (or .def_213 .def_216)))
(let ((.def_205 (<= .def_204 0.0 )))
(let ((.def_206 (not .def_205)))
(let ((.def_197 (<= .def_196 0.0 )))
(let ((.def_250 (or .def_197 .def_206)))
(let ((.def_252 (and .def_250 .def_251)))
(let ((.def_245 (not .def_244)))
(let ((.def_248 (or .def_245 .def_247)))
(let ((.def_249 (not .def_248)))
(let ((.def_253 (or .def_249 .def_252)))
(let ((.def_198 (not .def_197)))
(let ((.def_241 (or .def_198 .def_205)))
(let ((.def_214 (not .def_213)))
(let ((.def_240 (or .def_214 .def_215)))
(let ((.def_242 (and .def_240 .def_241)))
(let ((.def_235 (not .def_234)))
(let ((.def_238 (or .def_235 .def_237)))
(let ((.def_239 (not .def_238)))
(let ((.def_243 (or .def_239 .def_242)))
(let ((.def_254 (and .def_243 .def_253)))
(let ((.def_226 (and .def_163 .def_215)))
(let ((.def_225 (and .def_151 .def_197)))
(let ((.def_227 (or .def_225 .def_226)))
(let ((.def_101 (* (- (/ 49 10)) b.y__AT0)))
(let ((.def_134 (* 2.0 .def_101)))
(let ((.def_135 (* b.delta__AT0 .def_134)))
(let ((.def_136 (* 50.0 .def_135)))
(let ((.def_129 (* 2.0 .def_97)))
(let ((.def_130 (* b.delta__AT0 .def_129)))
(let ((.def_132 (* 25.0 .def_130)))
(let ((.def_142 (+ .def_132 .def_136)))
(let ((.def_125 (* .def_83 .def_124)))
(let ((.def_127 (* 50.0 .def_125)))
(let ((.def_143 (+ .def_127 .def_142)))
(let ((.def_138 (* 50.0 .def_105)))
(let ((.def_144 (+ .def_138 .def_143)))
(let ((.def_84 (* b.delta__AT0 .def_83)))
(let ((.def_122 (* 2401.0 .def_84)))
(let ((.def_145 (+ .def_122 .def_144)))
(let ((.def_140 (* 25.0 b.speed_x__AT0)))
(let ((.def_146 (+ .def_140 .def_145)))
(let ((.def_165 (<= .def_146 0.0 )))
(let ((.def_166 (not .def_165)))
(let ((.def_220 (or .def_163 .def_166)))
(let ((.def_152 (not .def_151)))
(let ((.def_147 (<= 0.0 .def_146)))
(let ((.def_219 (or .def_147 .def_152)))
(let ((.def_221 (and .def_219 .def_220)))
(let ((.def_217 (or .def_214 .def_216)))
(let ((.def_218 (not .def_217)))
(let ((.def_222 (or .def_218 .def_221)))
(let ((.def_148 (not .def_147)))
(let ((.def_210 (or .def_148 .def_151)))
(let ((.def_164 (not .def_163)))
(let ((.def_209 (or .def_164 .def_165)))
(let ((.def_211 (and .def_209 .def_210)))
(let ((.def_207 (or .def_198 .def_206)))
(let ((.def_208 (not .def_207)))
(let ((.def_212 (or .def_208 .def_211)))
(let ((.def_223 (and .def_212 .def_222)))
(let ((.def_178 (and .def_163 .def_165)))
(let ((.def_177 (and .def_147 .def_151)))
(let ((.def_179 (or .def_177 .def_178)))
(let ((.def_106 (* b.delta__AT0 .def_105)))
(let ((.def_107 (* 200.0 .def_106)))
(let ((.def_102 (* .def_83 .def_101)))
(let ((.def_103 (* 200.0 .def_102)))
(let ((.def_113 (+ .def_103 .def_107)))
(let ((.def_98 (* .def_83 .def_97)))
(let ((.def_99 (* 100.0 .def_98)))
(let ((.def_114 (+ .def_99 .def_113)))
(let ((.def_93 (* .def_84 .def_92)))
(let ((.def_95 (* 200.0 .def_93)))
(let ((.def_115 (+ .def_95 .def_114)))
(let ((.def_85 (* b.delta__AT0 .def_84)))
(let ((.def_87 (* 2401.0 .def_85)))
(let ((.def_116 (+ .def_87 .def_115)))
(let ((.def_82 (* 100.0 .def_80)))
(let ((.def_117 (+ .def_82 .def_116)))
(let ((.def_109 (* 100.0 .def_65)))
(let ((.def_118 (+ .def_109 .def_117)))
(let ((.def_111 (* 100.0 b.x__AT0)))
(let ((.def_119 (+ .def_111 .def_118)))
(let ((.def_157 (<= .def_119 0.0 )))
(let ((.def_171 (not .def_157)))
(let ((.def_155 (<= .def_66 0.0 )))
(let ((.def_172 (or .def_155 .def_171)))
(let ((.def_67 (<= 0.0 .def_66)))
(let ((.def_169 (not .def_67)))
(let ((.def_120 (<= 0.0 .def_119)))
(let ((.def_170 (or .def_120 .def_169)))
(let ((.def_173 (and .def_170 .def_172)))
(let ((.def_167 (or .def_164 .def_166)))
(let ((.def_168 (not .def_167)))
(let ((.def_174 (or .def_168 .def_173)))
(let ((.def_159 (not .def_120)))
(let ((.def_160 (or .def_67 .def_159)))
(let ((.def_156 (not .def_155)))
(let ((.def_158 (or .def_156 .def_157)))
(let ((.def_161 (and .def_158 .def_160)))
(let ((.def_153 (or .def_148 .def_152)))
(let ((.def_154 (not .def_153)))
(let ((.def_162 (or .def_154 .def_161)))
(let ((.def_175 (and .def_162 .def_174)))
(let ((.def_121 (and .def_67 .def_120)))
(let ((.def_176 (and .def_121 .def_175)))
(let ((.def_180 (and .def_176 .def_179)))
(let ((.def_224 (and .def_180 .def_223)))
(let ((.def_228 (and .def_224 .def_227)))
(let ((.def_255 (and .def_228 .def_254)))
(let ((.def_259 (and .def_255 .def_258)))
(let ((.def_263 (and .def_259 .def_262)))
(let ((.def_264 (and .def_74 .def_263)))
(let ((.def_75 (and .def_67 .def_74)))
(let ((.def_63 (or .def_60 .def_62)))
(let ((.def_53 (or .def_41 .def_43)))
(let ((.def_57 (or b.counter.3__AT0 .def_53)))
(let ((.def_54 (or b.counter.2__AT0 .def_53)))
(let ((.def_52 (or .def_43 .def_46)))
(let ((.def_55 (and .def_52 .def_54)))
(let ((.def_56 (or .def_49 .def_55)))
(let ((.def_58 (and .def_56 .def_57)))
(let ((.def_64 (and .def_58 .def_63)))
(let ((.def_76 (and .def_64 .def_75)))
(let ((.def_47 (and .def_44 .def_46)))
(let ((.def_50 (and .def_47 .def_49)))
(let ((.def_38 (= b.speed_y__AT0 1.0 )))
(let ((.def_35 (= b.speed_x__AT0 1.0 )))
(let ((.def_31 (= b.y__AT0 10.0 )))
(let ((.def_27 (= b.x__AT0 (- 9.0) )))
(let ((.def_21 (= b.time__AT0 0.0 )))
(let ((.def_23 (and .def_21 b.event_is_timed__AT0)))
(let ((.def_28 (and .def_23 .def_27)))
(let ((.def_32 (and .def_28 .def_31)))
(let ((.def_36 (and .def_32 .def_35)))
(let ((.def_39 (and .def_36 .def_38)))
(let ((.def_51 (and .def_39 .def_50)))
(let ((.def_77 (and .def_51 .def_76)))
(let ((.def_10 (and .def_6 .def_9)))
(let ((.def_16 (or .def_10 b.counter.3__AT1)))
(let ((.def_11 (or b.counter.2__AT1 .def_10)))
(let ((.def_7 (or .def_4 .def_6)))
(let ((.def_12 (and .def_7 .def_11)))
(let ((.def_15 (or .def_12 .def_14)))
(let ((.def_17 (and .def_15 .def_16)))
(let ((.def_18 (not .def_17)))
(let ((.def_78 (and .def_18 .def_77)))
(let ((.def_265 (and .def_78 .def_264)))
(let ((.def_460 (and .def_265 .def_459)))
(let ((.def_629 (and .def_460 .def_628)))
.def_629))))))))))))))))))))))))))))))))))))))))))))))))))))))))))))))))))))))))))))))))))))))))))))))))))))))))))))))))))))))))))))))))))))))))))))))))))))))))))))))))))))))))))))))))))))))))))))))))))))))))))))))))))))))))))))))))))))))))))))))))))))))))))))))))))))))))))))))))))))))))))))))))))))))))))))))))))))))))))))))))))))))))))))))))))))))))))))))))))))))))))))))))))))))))))))))))))))))))))))))))))))))))))))))))))))))))))))))))))))))))))))))))))))))))))))))))))))))))))))))))))))))))))))))))))))))))))))))))))))))))))))))))))
(check-sat)
(exit)
